NAME: TRP-S1000-R1
TYPE: TSP
COMMENT: Traveling Repairman Problem (TRP) Instances based on uniform distribution. Designed by Amir Salehipour, University of Antwerp, 2006.
DIMENSION: 1001
EDGE_WEIGHT_TYPE: EUC_2D
NODE_COORD_SECTION
1 404.0 16.0
2 430.0 192.0
3 372.0 256.0
4 103.0 9.0
5 377.0 495.0
6 284.0 299.0
7 416.0 400.0
8 236.0 238.0
9 334.0 90.0
10 398.0 364.0
11 196.0 71.0
12 402.0 90.0
13 77.0 427.0
14 296.0 107.0
15 156.0 122.0
16 474.0 148.0
17 239.0 456.0
18 92.0 303.0
19 134.0 41.0
20 482.0 340.0
21 485.0 338.0
22 327.0 248.0
23 474.0 117.0
24 114.0 431.0
25 32.0 391.0
26 133.0 283.0
27 442.0 170.0
28 33.0 77.0
29 479.0 102.0
30 203.0 381.0
31 474.0 339.0
32 500.0 450.0
33 450.0 196.0
34 72.0 300.0
35 214.0 439.0
36 315.0 414.0
37 47.0 275.0
38 212.0 291.0
39 383.0 375.0
40 72.0 273.0
41 120.0 11.0
42 445.0 379.0
43 448.0 121.0
44 217.0 75.0
45 344.0 407.0
46 158.0 199.0
47 112.0 260.0
48 432.0 484.0
49 117.0 121.0
50 342.0 393.0
51 108.0 89.0
52 320.0 207.0
53 258.0 351.0
54 431.0 79.0
55 317.0 285.0
56 407.0 495.0
57 30.0 279.0
58 467.0 370.0
59 186.0 132.0
60 459.0 193.0
61 468.0 82.0
62 66.0 467.0
63 467.0 313.0
64 108.0 362.0
65 22.0 7.0
66 201.0 308.0
67 265.0 266.0
68 289.0 463.0
69 13.0 2.0
70 304.0 278.0
71 401.0 94.0
72 495.0 94.0
73 396.0 416.0
74 165.0 488.0
75 82.0 48.0
76 342.0 306.0
77 348.0 258.0
78 159.0 111.0
79 392.0 70.0
80 442.0 466.0
81 153.0 17.0
82 279.0 285.0
83 88.0 388.0
84 95.0 188.0
85 412.0 52.0
86 478.0 70.0
87 212.0 193.0
88 292.0 332.0
89 58.0 33.0
90 330.0 482.0
91 14.0 360.0
92 28.0 56.0
93 186.0 455.0
94 1.0 71.0
95 191.0 239.0
96 428.0 439.0
97 199.0 210.0
98 31.0 80.0
99 432.0 14.0
100 188.0 158.0
101 259.0 219.0
102 429.0 155.0
103 282.0 114.0
104 329.0 237.0
105 55.0 132.0
106 83.0 116.0
107 316.0 194.0
108 255.0 350.0
109 387.0 87.0
110 481.0 302.0
111 122.0 173.0
112 137.0 193.0
113 53.0 31.0
114 241.0 467.0
115 106.0 343.0
116 97.0 412.0
117 58.0 109.0
118 460.0 244.0
119 96.0 28.0
120 216.0 102.0
121 132.0 104.0
122 372.0 170.0
123 272.0 320.0
124 341.0 360.0
125 57.0 454.0
126 316.0 276.0
127 397.0 363.0
128 218.0 404.0
129 310.0 319.0
130 21.0 232.0
131 372.0 213.0
132 429.0 256.0
133 21.0 220.0
134 204.0 68.0
135 91.0 247.0
136 143.0 488.0
137 237.0 233.0
138 473.0 441.0
139 120.0 148.0
140 183.0 24.0
141 8.0 250.0
142 52.0 479.0
143 179.0 442.0
144 401.0 13.0
145 269.0 301.0
146 313.0 179.0
147 445.0 105.0
148 368.0 260.0
149 57.0 441.0
150 121.0 370.0
151 158.0 223.0
152 376.0 218.0
153 21.0 192.0
154 492.0 238.0
155 53.0 228.0
156 253.0 46.0
157 253.0 59.0
158 65.0 414.0
159 86.0 183.0
160 489.0 230.0
161 433.0 97.0
162 385.0 127.0
163 492.0 139.0
164 176.0 261.0
165 284.0 50.0
166 498.0 412.0
167 141.0 51.0
168 260.0 383.0
169 335.0 45.0
170 360.0 389.0
171 214.0 251.0
172 104.0 395.0
173 9.0 354.0
174 56.0 100.0
175 188.0 499.0
176 368.0 26.0
177 7.0 215.0
178 334.0 410.0
179 136.0 78.0
180 195.0 361.0
181 18.0 217.0
182 453.0 469.0
183 337.0 463.0
184 217.0 339.0
185 239.0 247.0
186 339.0 236.0
187 202.0 50.0
188 365.0 307.0
189 196.0 1.0
190 55.0 70.0
191 9.0 446.0
192 498.0 141.0
193 398.0 56.0
194 84.0 379.0
195 450.0 323.0
196 344.0 428.0
197 283.0 2.0
198 430.0 333.0
199 496.0 335.0
200 250.0 208.0
201 490.0 143.0
202 18.0 137.0
203 68.0 95.0
204 245.0 281.0
205 439.0 256.0
206 421.0 374.0
207 25.0 217.0
208 421.0 79.0
209 220.0 410.0
210 390.0 400.0
211 462.0 416.0
212 120.0 95.0
213 303.0 356.0
214 201.0 311.0
215 321.0 183.0
216 436.0 377.0
217 53.0 469.0
218 314.0 466.0
219 316.0 1.0
220 30.0 85.0
221 61.0 263.0
222 340.0 76.0
223 167.0 148.0
224 255.0 111.0
225 285.0 459.0
226 331.0 354.0
227 153.0 42.0
228 99.0 262.0
229 5.0 120.0
230 367.0 226.0
231 469.0 161.0
232 434.0 499.0
233 94.0 352.0
234 471.0 112.0
235 402.0 20.0
236 84.0 249.0
237 94.0 61.0
238 329.0 258.0
239 317.0 216.0
240 195.0 272.0
241 112.0 274.0
242 317.0 137.0
243 456.0 22.0
244 433.0 93.0
245 21.0 27.0
246 357.0 417.0
247 48.0 66.0
248 480.0 493.0
249 481.0 309.0
250 65.0 481.0
251 237.0 48.0
252 350.0 72.0
253 270.0 76.0
254 228.0 15.0
255 311.0 37.0
256 17.0 364.0
257 421.0 318.0
258 86.0 164.0
259 258.0 324.0
260 355.0 18.0
261 184.0 198.0
262 427.0 238.0
263 123.0 336.0
264 385.0 43.0
265 288.0 248.0
266 495.0 491.0
267 184.0 118.0
268 348.0 117.0
269 24.0 126.0
270 210.0 460.0
271 438.0 369.0
272 73.0 453.0
273 137.0 444.0
274 204.0 362.0
275 399.0 50.0
276 173.0 233.0
277 32.0 148.0
278 164.0 58.0
279 208.0 48.0
280 43.0 98.0
281 289.0 467.0
282 491.0 81.0
283 61.0 405.0
284 178.0 212.0
285 495.0 421.0
286 273.0 220.0
287 442.0 109.0
288 295.0 373.0
289 387.0 397.0
290 63.0 175.0
291 172.0 447.0
292 277.0 200.0
293 306.0 281.0
294 479.0 263.0
295 272.0 421.0
296 424.0 375.0
297 463.0 155.0
298 112.0 201.0
299 136.0 227.0
300 15.0 452.0
301 25.0 58.0
302 245.0 439.0
303 16.0 298.0
304 190.0 221.0
305 0.0 309.0
306 386.0 62.0
307 323.0 402.0
308 131.0 146.0
309 448.0 390.0
310 115.0 253.0
311 238.0 314.0
312 74.0 354.0
313 493.0 392.0
314 243.0 319.0
315 132.0 40.0
316 116.0 196.0
317 160.0 29.0
318 281.0 275.0
319 310.0 113.0
320 346.0 362.0
321 11.0 208.0
322 222.0 500.0
323 52.0 441.0
324 280.0 64.0
325 105.0 161.0
326 141.0 446.0
327 480.0 225.0
328 121.0 283.0
329 262.0 149.0
330 98.0 417.0
331 226.0 441.0
332 313.0 71.0
333 146.0 213.0
334 365.0 402.0
335 426.0 375.0
336 428.0 424.0
337 155.0 7.0
338 450.0 478.0
339 12.0 232.0
340 347.0 212.0
341 128.0 170.0
342 454.0 274.0
343 326.0 297.0
344 268.0 172.0
345 360.0 285.0
346 220.0 496.0
347 46.0 168.0
348 18.0 467.0
349 437.0 383.0
350 308.0 11.0
351 418.0 45.0
352 179.0 304.0
353 373.0 13.0
354 276.0 4.0
355 307.0 83.0
356 30.0 114.0
357 68.0 383.0
358 281.0 185.0
359 59.0 308.0
360 298.0 301.0
361 77.0 54.0
362 478.0 68.0
363 174.0 99.0
364 219.0 42.0
365 185.0 198.0
366 250.0 307.0
367 294.0 223.0
368 421.0 161.0
369 306.0 424.0
370 235.0 98.0
371 496.0 443.0
372 110.0 60.0
373 182.0 158.0
374 174.0 141.0
375 412.0 182.0
376 71.0 212.0
377 407.0 97.0
378 71.0 164.0
379 147.0 254.0
380 485.0 217.0
381 249.0 213.0
382 159.0 12.0
383 15.0 151.0
384 54.0 423.0
385 301.0 326.0
386 187.0 301.0
387 92.0 401.0
388 442.0 106.0
389 430.0 242.0
390 16.0 123.0
391 74.0 480.0
392 26.0 216.0
393 47.0 447.0
394 25.0 329.0
395 451.0 292.0
396 460.0 181.0
397 189.0 369.0
398 331.0 363.0
399 496.0 213.0
400 54.0 281.0
401 406.0 198.0
402 325.0 163.0
403 59.0 188.0
404 461.0 71.0
405 472.0 273.0
406 18.0 124.0
407 184.0 405.0
408 180.0 386.0
409 399.0 27.0
410 195.0 125.0
411 29.0 15.0
412 370.0 389.0
413 269.0 1.0
414 390.0 112.0
415 103.0 430.0
416 479.0 192.0
417 374.0 409.0
418 167.0 255.0
419 315.0 175.0
420 180.0 44.0
421 175.0 280.0
422 217.0 156.0
423 337.0 299.0
424 127.0 64.0
425 66.0 152.0
426 264.0 127.0
427 275.0 362.0
428 15.0 58.0
429 456.0 332.0
430 288.0 27.0
431 158.0 467.0
432 461.0 381.0
433 160.0 218.0
434 59.0 161.0
435 232.0 372.0
436 190.0 375.0
437 108.0 183.0
438 479.0 244.0
439 80.0 148.0
440 40.0 355.0
441 355.0 26.0
442 242.0 430.0
443 38.0 416.0
444 276.0 174.0
445 420.0 478.0
446 307.0 392.0
447 433.0 128.0
448 212.0 337.0
449 423.0 274.0
450 177.0 481.0
451 134.0 432.0
452 160.0 183.0
453 40.0 292.0
454 499.0 431.0
455 413.0 76.0
456 171.0 131.0
457 275.0 245.0
458 469.0 140.0
459 117.0 398.0
460 110.0 488.0
461 34.0 444.0
462 53.0 7.0
463 156.0 358.0
464 24.0 312.0
465 23.0 120.0
466 23.0 331.0
467 299.0 147.0
468 337.0 351.0
469 449.0 308.0
470 300.0 272.0
471 290.0 348.0
472 349.0 30.0
473 40.0 294.0
474 111.0 382.0
475 268.0 173.0
476 55.0 16.0
477 375.0 126.0
478 465.0 187.0
479 5.0 243.0
480 264.0 329.0
481 25.0 186.0
482 430.0 342.0
483 456.0 450.0
484 46.0 28.0
485 10.0 322.0
486 232.0 342.0
487 115.0 370.0
488 481.0 454.0
489 65.0 50.0
490 165.0 294.0
491 197.0 242.0
492 223.0 39.0
493 221.0 311.0
494 306.0 262.0
495 116.0 8.0
496 378.0 171.0
497 197.0 293.0
498 55.0 163.0
499 290.0 416.0
500 191.0 128.0
501 106.0 316.0
502 475.0 228.0
503 250.0 189.0
504 53.0 72.0
505 471.0 281.0
506 453.0 32.0
507 64.0 252.0
508 309.0 106.0
509 56.0 177.0
510 170.0 79.0
511 72.0 20.0
512 391.0 392.0
513 10.0 155.0
514 387.0 454.0
515 437.0 258.0
516 254.0 333.0
517 320.0 163.0
518 34.0 34.0
519 6.0 491.0
520 127.0 319.0
521 79.0 144.0
522 126.0 265.0
523 483.0 485.0
524 82.0 30.0
525 65.0 290.0
526 478.0 500.0
527 414.0 288.0
528 406.0 308.0
529 138.0 374.0
530 241.0 395.0
531 488.0 333.0
532 294.0 88.0
533 440.0 127.0
534 246.0 382.0
535 150.0 105.0
536 347.0 393.0
537 414.0 187.0
538 165.0 181.0
539 20.0 368.0
540 392.0 388.0
541 137.0 111.0
542 478.0 401.0
543 133.0 458.0
544 104.0 1.0
545 458.0 445.0
546 260.0 180.0
547 486.0 135.0
548 449.0 105.0
549 456.0 361.0
550 273.0 405.0
551 400.0 498.0
552 431.0 261.0
553 207.0 350.0
554 377.0 481.0
555 196.0 467.0
556 165.0 26.0
557 364.0 488.0
558 249.0 177.0
559 175.0 321.0
560 243.0 320.0
561 49.0 252.0
562 417.0 19.0
563 426.0 301.0
564 434.0 360.0
565 61.0 409.0
566 107.0 255.0
567 429.0 280.0
568 178.0 153.0
569 387.0 462.0
570 398.0 383.0
571 482.0 488.0
572 406.0 53.0
573 40.0 160.0
574 195.0 236.0
575 440.0 304.0
576 161.0 378.0
577 196.0 69.0
578 12.0 135.0
579 259.0 108.0
580 45.0 97.0
581 152.0 207.0
582 67.0 98.0
583 360.0 201.0
584 464.0 67.0
585 91.0 245.0
586 192.0 119.0
587 305.0 279.0
588 198.0 345.0
589 165.0 259.0
590 50.0 3.0
591 277.0 478.0
592 272.0 56.0
593 385.0 63.0
594 172.0 271.0
595 386.0 474.0
596 153.0 324.0
597 329.0 81.0
598 301.0 117.0
599 274.0 150.0
600 243.0 264.0
601 156.0 308.0
602 50.0 438.0
603 44.0 328.0
604 202.0 44.0
605 438.0 306.0
606 375.0 418.0
607 493.0 54.0
608 71.0 499.0
609 305.0 289.0
610 353.0 183.0
611 163.0 456.0
612 208.0 315.0
613 394.0 248.0
614 284.0 10.0
615 200.0 159.0
616 47.0 273.0
617 123.0 153.0
618 95.0 104.0
619 31.0 263.0
620 159.0 55.0
621 266.0 212.0
622 61.0 436.0
623 345.0 382.0
624 127.0 116.0
625 349.0 195.0
626 341.0 142.0
627 399.0 254.0
628 239.0 109.0
629 354.0 313.0
630 321.0 490.0
631 124.0 399.0
632 488.0 387.0
633 237.0 173.0
634 273.0 397.0
635 50.0 353.0
636 385.0 53.0
637 255.0 280.0
638 325.0 28.0
639 44.0 455.0
640 92.0 85.0
641 113.0 118.0
642 247.0 438.0
643 356.0 207.0
644 353.0 12.0
645 418.0 275.0
646 43.0 286.0
647 483.0 182.0
648 252.0 165.0
649 444.0 150.0
650 361.0 114.0
651 342.0 8.0
652 276.0 474.0
653 215.0 203.0
654 214.0 183.0
655 255.0 406.0
656 192.0 347.0
657 396.0 286.0
658 12.0 372.0
659 249.0 296.0
660 234.0 96.0
661 498.0 23.0
662 410.0 142.0
663 168.0 461.0
664 108.0 432.0
665 397.0 258.0
666 464.0 64.0
667 97.0 278.0
668 306.0 23.0
669 162.0 64.0
670 101.0 401.0
671 94.0 6.0
672 233.0 111.0
673 200.0 319.0
674 405.0 264.0
675 245.0 140.0
676 144.0 196.0
677 209.0 335.0
678 211.0 321.0
679 23.0 330.0
680 400.0 279.0
681 447.0 60.0
682 14.0 75.0
683 459.0 355.0
684 27.0 168.0
685 311.0 338.0
686 188.0 202.0
687 132.0 170.0
688 100.0 349.0
689 230.0 224.0
690 22.0 448.0
691 467.0 2.0
692 426.0 414.0
693 370.0 380.0
694 62.0 96.0
695 345.0 22.0
696 50.0 61.0
697 152.0 13.0
698 273.0 490.0
699 27.0 71.0
700 68.0 145.0
701 82.0 389.0
702 7.0 119.0
703 393.0 452.0
704 254.0 300.0
705 394.0 404.0
706 288.0 276.0
707 488.0 283.0
708 498.0 119.0
709 2.0 219.0
710 407.0 261.0
711 383.0 411.0
712 61.0 401.0
713 272.0 460.0
714 329.0 165.0
715 351.0 397.0
716 139.0 455.0
717 100.0 472.0
718 416.0 202.0
719 353.0 47.0
720 235.0 469.0
721 304.0 147.0
722 457.0 111.0
723 335.0 25.0
724 357.0 444.0
725 330.0 303.0
726 19.0 122.0
727 341.0 15.0
728 12.0 186.0
729 270.0 139.0
730 100.0 475.0
731 436.0 446.0
732 24.0 363.0
733 190.0 235.0
734 100.0 15.0
735 443.0 291.0
736 163.0 126.0
737 275.0 135.0
738 110.0 337.0
739 491.0 413.0
740 78.0 288.0
741 282.0 473.0
742 499.0 2.0
743 376.0 487.0
744 59.0 68.0
745 312.0 174.0
746 330.0 310.0
747 239.0 472.0
748 89.0 402.0
749 381.0 214.0
750 76.0 140.0
751 45.0 159.0
752 232.0 307.0
753 323.0 441.0
754 155.0 350.0
755 387.0 270.0
756 316.0 315.0
757 490.0 462.0
758 275.0 239.0
759 97.0 125.0
760 438.0 467.0
761 266.0 85.0
762 94.0 73.0
763 169.0 370.0
764 276.0 369.0
765 406.0 336.0
766 186.0 173.0
767 494.0 270.0
768 218.0 313.0
769 171.0 27.0
770 331.0 63.0
771 411.0 61.0
772 301.0 456.0
773 286.0 391.0
774 105.0 189.0
775 67.0 365.0
776 463.0 66.0
777 207.0 278.0
778 292.0 186.0
779 91.0 173.0
780 105.0 327.0
781 202.0 419.0
782 101.0 225.0
783 81.0 379.0
784 473.0 211.0
785 242.0 246.0
786 203.0 404.0
787 403.0 389.0
788 343.0 407.0
789 208.0 274.0
790 73.0 219.0
791 301.0 287.0
792 25.0 315.0
793 408.0 52.0
794 154.0 85.0
795 321.0 58.0
796 176.0 105.0
797 405.0 172.0
798 320.0 424.0
799 48.0 385.0
800 429.0 334.0
801 163.0 341.0
802 164.0 317.0
803 157.0 3.0
804 330.0 129.0
805 498.0 15.0
806 93.0 217.0
807 268.0 107.0
808 94.0 430.0
809 350.0 96.0
810 238.0 221.0
811 128.0 340.0
812 165.0 297.0
813 360.0 194.0
814 170.0 414.0
815 90.0 328.0
816 93.0 280.0
817 264.0 448.0
818 436.0 262.0
819 417.0 286.0
820 229.0 350.0
821 97.0 409.0
822 407.0 82.0
823 391.0 185.0
824 219.0 392.0
825 212.0 490.0
826 430.0 63.0
827 235.0 476.0
828 327.0 263.0
829 109.0 475.0
830 307.0 353.0
831 356.0 385.0
832 54.0 413.0
833 78.0 91.0
834 70.0 214.0
835 384.0 268.0
836 82.0 62.0
837 153.0 141.0
838 82.0 232.0
839 43.0 20.0
840 26.0 447.0
841 381.0 204.0
842 444.0 92.0
843 319.0 63.0
844 496.0 130.0
845 403.0 396.0
846 214.0 416.0
847 446.0 378.0
848 476.0 363.0
849 343.0 185.0
850 443.0 164.0
851 210.0 114.0
852 12.0 24.0
853 15.0 286.0
854 18.0 99.0
855 55.0 254.0
856 218.0 108.0
857 445.0 100.0
858 322.0 308.0
859 8.0 340.0
860 82.0 287.0
861 191.0 226.0
862 204.0 292.0
863 417.0 266.0
864 102.0 24.0
865 497.0 38.0
866 262.0 118.0
867 1.0 134.0
868 220.0 259.0
869 237.0 311.0
870 439.0 130.0
871 206.0 166.0
872 77.0 153.0
873 194.0 427.0
874 434.0 224.0
875 384.0 184.0
876 75.0 392.0
877 129.0 129.0
878 415.0 188.0
879 277.0 151.0
880 254.0 57.0
881 183.0 345.0
882 60.0 99.0
883 315.0 277.0
884 485.0 58.0
885 74.0 74.0
886 401.0 289.0
887 232.0 179.0
888 466.0 126.0
889 123.0 330.0
890 478.0 372.0
891 483.0 115.0
892 43.0 367.0
893 74.0 157.0
894 315.0 324.0
895 485.0 275.0
896 332.0 390.0
897 247.0 195.0
898 201.0 143.0
899 165.0 131.0
900 161.0 476.0
901 486.0 321.0
902 284.0 56.0
903 320.0 353.0
904 321.0 334.0
905 429.0 341.0
906 481.0 295.0
907 293.0 293.0
908 131.0 401.0
909 87.0 252.0
910 201.0 438.0
911 456.0 20.0
912 313.0 213.0
913 239.0 66.0
914 374.0 305.0
915 14.0 427.0
916 185.0 334.0
917 134.0 192.0
918 298.0 425.0
919 111.0 393.0
920 160.0 355.0
921 12.0 383.0
922 298.0 57.0
923 255.0 19.0
924 62.0 448.0
925 431.0 249.0
926 198.0 283.0
927 59.0 410.0
928 253.0 484.0
929 409.0 326.0
930 99.0 154.0
931 282.0 35.0
932 69.0 217.0
933 384.0 214.0
934 482.0 406.0
935 198.0 142.0
936 78.0 27.0
937 477.0 270.0
938 112.0 232.0
939 265.0 232.0
940 140.0 226.0
941 73.0 371.0
942 256.0 125.0
943 112.0 107.0
944 285.0 427.0
945 214.0 235.0
946 222.0 273.0
947 339.0 468.0
948 404.0 479.0
949 305.0 308.0
950 203.0 25.0
951 129.0 82.0
952 247.0 457.0
953 130.0 207.0
954 432.0 415.0
955 169.0 15.0
956 243.0 220.0
957 183.0 233.0
958 156.0 250.0
959 390.0 416.0
960 123.0 31.0
961 311.0 443.0
962 419.0 264.0
963 10.0 376.0
964 359.0 238.0
965 168.0 284.0
966 154.0 324.0
967 404.0 340.0
968 419.0 17.0
969 481.0 289.0
970 99.0 211.0
971 270.0 91.0
972 331.0 182.0
973 136.0 341.0
974 8.0 457.0
975 119.0 283.0
976 55.0 50.0
977 63.0 490.0
978 191.0 242.0
979 73.0 53.0
980 181.0 375.0
981 447.0 342.0
982 359.0 361.0
983 476.0 181.0
984 423.0 344.0
985 243.0 3.0
986 279.0 247.0
987 321.0 321.0
988 438.0 127.0
989 6.0 91.0
990 247.0 60.0
991 479.0 292.0
992 451.0 4.0
993 33.0 308.0
994 371.0 338.0
995 257.0 432.0
996 196.0 42.0
997 321.0 74.0
998 168.0 207.0
999 252.0 10.0
1000 166.0 340.0
1001 332.0 225.0
EOF
